NAME          
ROWS
 N  OBJ
 L  c1
COLUMNS
    MARKER    'MARKER'                 'INTORG'
    x[1]      c1        569
    x[1]      OBJ       -509
    x[2]      c1        810
    x[2]      OBJ       -889
    x[3]      c1        834
    x[3]      OBJ       -860
    x[4]      c1        921
    x[4]      OBJ       -993
    x[5]      c1        454
    x[5]      OBJ       -524
    x[6]      c1        625
    x[6]      OBJ       -632
    x[7]      c1        908
    x[7]      OBJ       -972
    x[8]      c1        584
    x[8]      OBJ       -665
    x[9]      c1        264
    x[9]      OBJ       -164
    x[10]     c1        107
    x[10]     OBJ       -200
    x[11]     c1        838
    x[11]     OBJ       -770
    x[12]     c1        736
    x[12]     OBJ       -665
    x[13]     c1        107
    x[13]     OBJ       -144
    x[14]     c1        617
    x[14]     OBJ       -571
    x[15]     c1        975
    x[15]     OBJ       -923
    x[16]     c1        643
    x[16]     OBJ       -675
    x[17]     c1        985
    x[17]     OBJ       -946
    x[18]     c1        608
    x[18]     OBJ       -521
    x[19]     c1        141
    x[19]     OBJ       -150
    x[20]     c1        509
    x[20]     OBJ       -445
    x[21]     c1        917
    x[21]     OBJ       -909
    x[22]     c1        907
    x[22]     OBJ       -861
    x[23]     c1        528
    x[23]     OBJ       -488
    x[24]     c1        840
    x[24]     OBJ       -774
    x[25]     c1        316
    x[25]     OBJ       -359
    x[26]     c1        459
    x[26]     OBJ       -474
    x[27]     c1        339
    x[27]     OBJ       -298
    x[28]     c1        571
    x[28]     OBJ       -658
    x[29]     c1        433
    x[29]     OBJ       -456
    x[30]     c1        737
    x[30]     OBJ       -775
    x[31]     c1        875
    x[31]     OBJ       -944
    x[32]     c1        585
    x[32]     OBJ       -631
    x[33]     c1        -9
    x[33]     OBJ       -90
    x[34]     c1        210
    x[34]     OBJ       -194
    x[35]     c1        432
    x[35]     OBJ       -441
    x[36]     c1        402
    x[36]     OBJ       -368
    x[37]     c1        639
    x[37]     OBJ       -612
    x[38]     c1        244
    x[38]     OBJ       -173
    x[39]     c1        708
    x[39]     OBJ       -609
    x[40]     c1        923
    x[40]     OBJ       -959
    x[41]     c1        174
    x[41]     OBJ       -241
    x[42]     c1        -31
    x[42]     OBJ       -49
    x[43]     c1        954
    x[43]     OBJ       -890
    x[44]     c1        624
    x[44]     OBJ       -641
    x[45]     c1        440
    x[45]     OBJ       -517
    x[46]     c1        812
    x[46]     OBJ       -769
    x[47]     c1        699
    x[47]     OBJ       -670
    x[48]     c1        524
    x[48]     OBJ       -516
    x[49]     c1        27
    x[49]     OBJ       -45
    x[50]     c1        428
    x[50]     OBJ       -524
RHS
    rhs       c1        13971
RANGES
BOUNDS
 BV bounds    x[1]
 BV bounds    x[2]
 BV bounds    x[3]
 BV bounds    x[4]
 BV bounds    x[5]
 BV bounds    x[6]
 BV bounds    x[7]
 BV bounds    x[8]
 BV bounds    x[9]
 BV bounds    x[10]
 BV bounds    x[11]
 BV bounds    x[12]
 BV bounds    x[13]
 BV bounds    x[14]
 BV bounds    x[15]
 BV bounds    x[16]
 BV bounds    x[17]
 BV bounds    x[18]
 BV bounds    x[19]
 BV bounds    x[20]
 BV bounds    x[21]
 BV bounds    x[22]
 BV bounds    x[23]
 BV bounds    x[24]
 BV bounds    x[25]
 BV bounds    x[26]
 BV bounds    x[27]
 BV bounds    x[28]
 BV bounds    x[29]
 BV bounds    x[30]
 BV bounds    x[31]
 BV bounds    x[32]
 BV bounds    x[33]
 BV bounds    x[34]
 BV bounds    x[35]
 BV bounds    x[36]
 BV bounds    x[37]
 BV bounds    x[38]
 BV bounds    x[39]
 BV bounds    x[40]
 BV bounds    x[41]
 BV bounds    x[42]
 BV bounds    x[43]
 BV bounds    x[44]
 BV bounds    x[45]
 BV bounds    x[46]
 BV bounds    x[47]
 BV bounds    x[48]
 BV bounds    x[49]
 BV bounds    x[50]
ENDATA
